0 0 0 0
0 1 0 0
0 2 0 0
0 3 0 0
0 4 0 1
0 5 1 3
0 6 0 2
0 7 0 2
0 8 0 4
0 9 0 4
0 10 0 3
0 11 0 6
0 12 0 5
0 13 0 9
0 14 0 9
0 15 0 12
0 16 0 15
0 17 1 11
0 18 0 9
0 19 0 11
0 20 0 12
0 21 0 13
0 22 0 12
0 23 0 17
0 24 0 21
0 25 0 22
0 26 0 17
0 27 0 21
0 28 0 24
0 29 1 17
0 30 0 24
0 31 0 30
